c description: There is a graph of 7 vertices with a 3-clique and a 9-coloring
c generator: CNFgen (0.9.0)
c copyright: (C) 2012-2020 Massimo Lauria <massimo.lauria@uniroma1.it>
c url: https://massimolauria.net/cnfgen
c
p cnf 105 661
-22 -23 0
-22 -24 0
-22 -25 0
-22 -26 0
-22 -27 0
-22 -28 0
-23 -24 0
-23 -25 0
-23 -26 0
-23 -27 0
-23 -28 0
-24 -25 0
-24 -26 0
-24 -27 0
-24 -28 0
-25 -26 0
-25 -27 0
-25 -28 0
-26 -27 0
-26 -28 0
-27 -28 0
22 23 24 25 26 27 28 0
-29 -30 0
-29 -31 0
-29 -32 0
-29 -33 0
-29 -34 0
-29 -35 0
-30 -31 0
-30 -32 0
-30 -33 0
-30 -34 0
-30 -35 0
-31 -32 0
-31 -33 0
-31 -34 0
-31 -35 0
-32 -33 0
-32 -34 0
-32 -35 0
-33 -34 0
-33 -35 0
-34 -35 0
29 30 31 32 33 34 35 0
-36 -37 0
-36 -38 0
-36 -39 0
-36 -40 0
-36 -41 0
-36 -42 0
-37 -38 0
-37 -39 0
-37 -40 0
-37 -41 0
-37 -42 0
-38 -39 0
-38 -40 0
-38 -41 0
-38 -42 0
-39 -40 0
-39 -41 0
-39 -42 0
-40 -41 0
-40 -42 0
-41 -42 0
36 37 38 39 40 41 42 0
-22 -29 0
-22 -36 0
-29 -36 0
-23 -30 0
-23 -37 0
-30 -37 0
-24 -31 0
-24 -38 0
-31 -38 0
-25 -32 0
-25 -39 0
-32 -39 0
-26 -33 0
-26 -40 0
-33 -40 0
-27 -34 0
-27 -41 0
-34 -41 0
-28 -35 0
-28 -42 0
-35 -42 0
1 -22 -30 0
1 -22 -37 0
1 -29 -23 0
1 -29 -37 0
1 -36 -23 0
1 -36 -30 0
2 -22 -31 0
2 -22 -38 0
2 -29 -24 0
2 -29 -38 0
2 -36 -24 0
2 -36 -31 0
3 -22 -32 0
3 -22 -39 0
3 -29 -25 0
3 -29 -39 0
3 -36 -25 0
3 -36 -32 0
4 -22 -33 0
4 -22 -40 0
4 -29 -26 0
4 -29 -40 0
4 -36 -26 0
4 -36 -33 0
5 -22 -34 0
5 -22 -41 0
5 -29 -27 0
5 -29 -41 0
5 -36 -27 0
5 -36 -34 0
6 -22 -35 0
6 -22 -42 0
6 -29 -28 0
6 -29 -42 0
6 -36 -28 0
6 -36 -35 0
7 -23 -31 0
7 -23 -38 0
7 -30 -24 0
7 -30 -38 0
7 -37 -24 0
7 -37 -31 0
8 -23 -32 0
8 -23 -39 0
8 -30 -25 0
8 -30 -39 0
8 -37 -25 0
8 -37 -32 0
9 -23 -33 0
9 -23 -40 0
9 -30 -26 0
9 -30 -40 0
9 -37 -26 0
9 -37 -33 0
10 -23 -34 0
10 -23 -41 0
10 -30 -27 0
10 -30 -41 0
10 -37 -27 0
10 -37 -34 0
11 -23 -35 0
11 -23 -42 0
11 -30 -28 0
11 -30 -42 0
11 -37 -28 0
11 -37 -35 0
12 -24 -32 0
12 -24 -39 0
12 -31 -25 0
12 -31 -39 0
12 -38 -25 0
12 -38 -32 0
13 -24 -33 0
13 -24 -40 0
13 -31 -26 0
13 -31 -40 0
13 -38 -26 0
13 -38 -33 0
14 -24 -34 0
14 -24 -41 0
14 -31 -27 0
14 -31 -41 0
14 -38 -27 0
14 -38 -34 0
15 -24 -35 0
15 -24 -42 0
15 -31 -28 0
15 -31 -42 0
15 -38 -28 0
15 -38 -35 0
16 -25 -33 0
16 -25 -40 0
16 -32 -26 0
16 -32 -40 0
16 -39 -26 0
16 -39 -33 0
17 -25 -34 0
17 -25 -41 0
17 -32 -27 0
17 -32 -41 0
17 -39 -27 0
17 -39 -34 0
18 -25 -35 0
18 -25 -42 0
18 -32 -28 0
18 -32 -42 0
18 -39 -28 0
18 -39 -35 0
19 -26 -34 0
19 -26 -41 0
19 -33 -27 0
19 -33 -41 0
19 -40 -27 0
19 -40 -34 0
20 -26 -35 0
20 -26 -42 0
20 -33 -28 0
20 -33 -42 0
20 -40 -28 0
20 -40 -35 0
21 -27 -35 0
21 -27 -42 0
21 -34 -28 0
21 -34 -42 0
21 -41 -28 0
21 -41 -35 0
-43 -44 0
-43 -45 0
-43 -46 0
-43 -47 0
-43 -48 0
-43 -49 0
-43 -50 0
-43 -51 0
-44 -45 0
-44 -46 0
-44 -47 0
-44 -48 0
-44 -49 0
-44 -50 0
-44 -51 0
-45 -46 0
-45 -47 0
-45 -48 0
-45 -49 0
-45 -50 0
-45 -51 0
-46 -47 0
-46 -48 0
-46 -49 0
-46 -50 0
-46 -51 0
-47 -48 0
-47 -49 0
-47 -50 0
-47 -51 0
-48 -49 0
-48 -50 0
-48 -51 0
-49 -50 0
-49 -51 0
-50 -51 0
43 44 45 46 47 48 49 50 51 0
-52 -53 0
-52 -54 0
-52 -55 0
-52 -56 0
-52 -57 0
-52 -58 0
-52 -59 0
-52 -60 0
-53 -54 0
-53 -55 0
-53 -56 0
-53 -57 0
-53 -58 0
-53 -59 0
-53 -60 0
-54 -55 0
-54 -56 0
-54 -57 0
-54 -58 0
-54 -59 0
-54 -60 0
-55 -56 0
-55 -57 0
-55 -58 0
-55 -59 0
-55 -60 0
-56 -57 0
-56 -58 0
-56 -59 0
-56 -60 0
-57 -58 0
-57 -59 0
-57 -60 0
-58 -59 0
-58 -60 0
-59 -60 0
52 53 54 55 56 57 58 59 60 0
-61 -62 0
-61 -63 0
-61 -64 0
-61 -65 0
-61 -66 0
-61 -67 0
-61 -68 0
-61 -69 0
-62 -63 0
-62 -64 0
-62 -65 0
-62 -66 0
-62 -67 0
-62 -68 0
-62 -69 0
-63 -64 0
-63 -65 0
-63 -66 0
-63 -67 0
-63 -68 0
-63 -69 0
-64 -65 0
-64 -66 0
-64 -67 0
-64 -68 0
-64 -69 0
-65 -66 0
-65 -67 0
-65 -68 0
-65 -69 0
-66 -67 0
-66 -68 0
-66 -69 0
-67 -68 0
-67 -69 0
-68 -69 0
61 62 63 64 65 66 67 68 69 0
-70 -71 0
-70 -72 0
-70 -73 0
-70 -74 0
-70 -75 0
-70 -76 0
-70 -77 0
-70 -78 0
-71 -72 0
-71 -73 0
-71 -74 0
-71 -75 0
-71 -76 0
-71 -77 0
-71 -78 0
-72 -73 0
-72 -74 0
-72 -75 0
-72 -76 0
-72 -77 0
-72 -78 0
-73 -74 0
-73 -75 0
-73 -76 0
-73 -77 0
-73 -78 0
-74 -75 0
-74 -76 0
-74 -77 0
-74 -78 0
-75 -76 0
-75 -77 0
-75 -78 0
-76 -77 0
-76 -78 0
-77 -78 0
70 71 72 73 74 75 76 77 78 0
-79 -80 0
-79 -81 0
-79 -82 0
-79 -83 0
-79 -84 0
-79 -85 0
-79 -86 0
-79 -87 0
-80 -81 0
-80 -82 0
-80 -83 0
-80 -84 0
-80 -85 0
-80 -86 0
-80 -87 0
-81 -82 0
-81 -83 0
-81 -84 0
-81 -85 0
-81 -86 0
-81 -87 0
-82 -83 0
-82 -84 0
-82 -85 0
-82 -86 0
-82 -87 0
-83 -84 0
-83 -85 0
-83 -86 0
-83 -87 0
-84 -85 0
-84 -86 0
-84 -87 0
-85 -86 0
-85 -87 0
-86 -87 0
79 80 81 82 83 84 85 86 87 0
-88 -89 0
-88 -90 0
-88 -91 0
-88 -92 0
-88 -93 0
-88 -94 0
-88 -95 0
-88 -96 0
-89 -90 0
-89 -91 0
-89 -92 0
-89 -93 0
-89 -94 0
-89 -95 0
-89 -96 0
-90 -91 0
-90 -92 0
-90 -93 0
-90 -94 0
-90 -95 0
-90 -96 0
-91 -92 0
-91 -93 0
-91 -94 0
-91 -95 0
-91 -96 0
-92 -93 0
-92 -94 0
-92 -95 0
-92 -96 0
-93 -94 0
-93 -95 0
-93 -96 0
-94 -95 0
-94 -96 0
-95 -96 0
88 89 90 91 92 93 94 95 96 0
-97 -98 0
-97 -99 0
-97 -100 0
-97 -101 0
-97 -102 0
-97 -103 0
-97 -104 0
-97 -105 0
-98 -99 0
-98 -100 0
-98 -101 0
-98 -102 0
-98 -103 0
-98 -104 0
-98 -105 0
-99 -100 0
-99 -101 0
-99 -102 0
-99 -103 0
-99 -104 0
-99 -105 0
-100 -101 0
-100 -102 0
-100 -103 0
-100 -104 0
-100 -105 0
-101 -102 0
-101 -103 0
-101 -104 0
-101 -105 0
-102 -103 0
-102 -104 0
-102 -105 0
-103 -104 0
-103 -105 0
-104 -105 0
97 98 99 100 101 102 103 104 105 0
-1 -43 -52 0
-1 -44 -53 0
-1 -45 -54 0
-1 -46 -55 0
-1 -47 -56 0
-1 -48 -57 0
-1 -49 -58 0
-1 -50 -59 0
-1 -51 -60 0
-2 -43 -61 0
-2 -44 -62 0
-2 -45 -63 0
-2 -46 -64 0
-2 -47 -65 0
-2 -48 -66 0
-2 -49 -67 0
-2 -50 -68 0
-2 -51 -69 0
-3 -43 -70 0
-3 -44 -71 0
-3 -45 -72 0
-3 -46 -73 0
-3 -47 -74 0
-3 -48 -75 0
-3 -49 -76 0
-3 -50 -77 0
-3 -51 -78 0
-4 -43 -79 0
-4 -44 -80 0
-4 -45 -81 0
-4 -46 -82 0
-4 -47 -83 0
-4 -48 -84 0
-4 -49 -85 0
-4 -50 -86 0
-4 -51 -87 0
-5 -43 -88 0
-5 -44 -89 0
-5 -45 -90 0
-5 -46 -91 0
-5 -47 -92 0
-5 -48 -93 0
-5 -49 -94 0
-5 -50 -95 0
-5 -51 -96 0
-6 -43 -97 0
-6 -44 -98 0
-6 -45 -99 0
-6 -46 -100 0
-6 -47 -101 0
-6 -48 -102 0
-6 -49 -103 0
-6 -50 -104 0
-6 -51 -105 0
-7 -52 -61 0
-7 -53 -62 0
-7 -54 -63 0
-7 -55 -64 0
-7 -56 -65 0
-7 -57 -66 0
-7 -58 -67 0
-7 -59 -68 0
-7 -60 -69 0
-8 -52 -70 0
-8 -53 -71 0
-8 -54 -72 0
-8 -55 -73 0
-8 -56 -74 0
-8 -57 -75 0
-8 -58 -76 0
-8 -59 -77 0
-8 -60 -78 0
-9 -52 -79 0
-9 -53 -80 0
-9 -54 -81 0
-9 -55 -82 0
-9 -56 -83 0
-9 -57 -84 0
-9 -58 -85 0
-9 -59 -86 0
-9 -60 -87 0
-10 -52 -88 0
-10 -53 -89 0
-10 -54 -90 0
-10 -55 -91 0
-10 -56 -92 0
-10 -57 -93 0
-10 -58 -94 0
-10 -59 -95 0
-10 -60 -96 0
-11 -52 -97 0
-11 -53 -98 0
-11 -54 -99 0
-11 -55 -100 0
-11 -56 -101 0
-11 -57 -102 0
-11 -58 -103 0
-11 -59 -104 0
-11 -60 -105 0
-12 -61 -70 0
-12 -62 -71 0
-12 -63 -72 0
-12 -64 -73 0
-12 -65 -74 0
-12 -66 -75 0
-12 -67 -76 0
-12 -68 -77 0
-12 -69 -78 0
-13 -61 -79 0
-13 -62 -80 0
-13 -63 -81 0
-13 -64 -82 0
-13 -65 -83 0
-13 -66 -84 0
-13 -67 -85 0
-13 -68 -86 0
-13 -69 -87 0
-14 -61 -88 0
-14 -62 -89 0
-14 -63 -90 0
-14 -64 -91 0
-14 -65 -92 0
-14 -66 -93 0
-14 -67 -94 0
-14 -68 -95 0
-14 -69 -96 0
-15 -61 -97 0
-15 -62 -98 0
-15 -63 -99 0
-15 -64 -100 0
-15 -65 -101 0
-15 -66 -102 0
-15 -67 -103 0
-15 -68 -104 0
-15 -69 -105 0
-16 -70 -79 0
-16 -71 -80 0
-16 -72 -81 0
-16 -73 -82 0
-16 -74 -83 0
-16 -75 -84 0
-16 -76 -85 0
-16 -77 -86 0
-16 -78 -87 0
-17 -70 -88 0
-17 -71 -89 0
-17 -72 -90 0
-17 -73 -91 0
-17 -74 -92 0
-17 -75 -93 0
-17 -76 -94 0
-17 -77 -95 0
-17 -78 -96 0
-18 -70 -97 0
-18 -71 -98 0
-18 -72 -99 0
-18 -73 -100 0
-18 -74 -101 0
-18 -75 -102 0
-18 -76 -103 0
-18 -77 -104 0
-18 -78 -105 0
-19 -79 -88 0
-19 -80 -89 0
-19 -81 -90 0
-19 -82 -91 0
-19 -83 -92 0
-19 -84 -93 0
-19 -85 -94 0
-19 -86 -95 0
-19 -87 -96 0
-20 -79 -97 0
-20 -80 -98 0
-20 -81 -99 0
-20 -82 -100 0
-20 -83 -101 0
-20 -84 -102 0
-20 -85 -103 0
-20 -86 -104 0
-20 -87 -105 0
-21 -88 -97 0
-21 -89 -98 0
-21 -90 -99 0
-21 -91 -100 0
-21 -92 -101 0
-21 -93 -102 0
-21 -94 -103 0
-21 -95 -104 0
-21 -96 -105 0